67
462
289
18
0
188
169
166
23
0
205
0
310
54
27
0
147
23
19
15
29
94
120
54
19
107
0
72
57
204
0
583
76
42
113
24
655
20
47
0
80
0
226
0
14
55
128
63
131
713
0
132
32
288
10
326
42
0
14
29
35
34
126
35
396
46
161
408
26
54
239
98
320
468
185
0
14
30
69
24
148
51
55
57
0
0
47
0
48
30
0
54
89
58
0
17
52
101
67
0
